words_hard_train/4694.qaiger
aag 39 11 0 1 28
2
4
8
10
14
24
32
44
52
62
70
79
6 3 4
12 9 11
16 13 14
18 2 5
20 17 19
22 7 21
26 5 24
28 4 25
30 27 29
34 30 32
36 23 35
38 31 33
40 37 39
42 29 25
46 42 45
48 43 44
50 47 49
54 50 52
56 41 55
58 51 53
60 57 59
64 49 63
66 48 62
68 65 67
72 68 71
74 61 73
76 69 70
78 75 77
i0 2 y1[4]
i1 1 x1[0]
i2 2 y1[1]
i3 2 y1[2]
i4 2 y1[3]
i5 1 x1[1]
i6 2 y1[5]
i7 1 x1[2]
i8 2 y1[6]
i9 1 x1[3]
i10 2 y1[7]
o0 bv[0]
c
simplified
  <=
    add
      invert
        -183
      << 4
        1 x1
    invert
      2 y1
