words_hard_train/4694.qaiger.qdimacs
p cnf 39 85
a 2 12 22 31 0
e 1 3 4 5 6 7 8 9 10 11 13 14 15 16 17 18 19 20 21 23 24 25 26 27 28 29 30 32 33 34 35 36 37 38 39 0
1 -2 3 0
-1 -3 0
2 -3 0
4 5 6 0
-4 -6 0
-5 -6 0
6 -7 8 0
-6 -8 0
7 -8 0
-1 2 9 0
1 -9 0
-2 -9 0
8 9 10 0
-8 -10 0
-9 -10 0
3 10 11 0
-3 -11 0
-10 -11 0
2 -12 13 0
-2 -13 0
12 -13 0
-2 12 14 0
2 -14 0
-12 -14 0
13 14 15 0
-13 -15 0
-14 -15 0
-15 -16 17 0
15 -17 0
16 -17 0
11 17 18 0
-11 -18 0
-17 -18 0
15 16 19 0
-15 -19 0
-16 -19 0
18 19 20 0
-18 -20 0
-19 -20 0
14 12 21 0
-14 -21 0
-12 -21 0
-21 22 23 0
21 -23 0
-22 -23 0
21 -22 24 0
-21 -24 0
22 -24 0
23 24 25 0
-23 -25 0
-24 -25 0
-25 -26 27 0
25 -27 0
26 -27 0
20 27 28 0
-20 -28 0
-27 -28 0
25 26 29 0
-25 -29 0
-26 -29 0
28 29 30 0
-28 -30 0
-29 -30 0
24 31 32 0
-24 -32 0
-31 -32 0
-24 -31 33 0
24 -33 0
31 -33 0
32 33 34 0
-32 -34 0
-33 -34 0
-34 35 36 0
34 -36 0
-35 -36 0
30 36 37 0
-30 -37 0
-36 -37 0
34 -35 38 0
-34 -38 0
35 -38 0
37 38 39 0
-37 -39 0
-38 -39 0
-39 0
